<?xml version = "1.0" standalone="yes"?>
<!-- This file has been generated by DOcplex version 2.23.222  -->
<CPLEXSolution version="1.0">
 <header
   problemName="CVRP"
   objectiveValue="5957.11"
  />
 <variables>
  <variable name="x_0_2" index="1" value="1.00000"/>
  <variable name="x_0_5" index="4" value="1.00000"/>
  <variable name="x_0_6" index="5" value="1.00000"/>
  <variable name="x_0_7" index="6" value="1.00000"/>
  <variable name="x_0_8" index="7" value="1.00000"/>
  <variable name="x_0_9" index="8" value="1.00000"/>
  <variable name="x_1_0" index="10" value="1.00000"/>
  <variable name="x_2_0" index="20" value="1.00000"/>
  <variable name="x_3_0" index="30" value="1.00000"/>
  <variable name="x_4_0" index="40" value="1.00000"/>
  <variable name="x_5_4" index="54" value="1.00000"/>
  <variable name="x_6_10" index="69" value="1.00000"/>
  <variable name="x_7_0" index="70" value="1.00000"/>
  <variable name="x_8_1" index="81" value="1.00000"/>
  <variable name="x_9_0" index="90" value="1.00000"/>
  <variable name="x_10_3" index="103" value="1.00000"/>
  <variable name="u_1" index="110" value="38.00000"/>
  <variable name="u_2" index="111" value="55.00000"/>
  <variable name="u_3" index="112" value="55.00000"/>
  <variable name="u_4" index="113" value="38.00000"/>
  <variable name="u_5" index="114" value="37.00000"/>
  <variable name="u_6" index="115" value="22.00000"/>
  <variable name="u_7" index="116" value="43.00000"/>
  <variable name="u_8" index="117" value="16.00000"/>
  <variable name="u_9" index="118" value="42.00000"/>
  <variable name="u_10" index="119" value="33.00000"/>
 </variables>
</CPLEXSolution>
